data;


param d:= 100;
param r:=5;
param p:=0.800000;
param M:=1000;
param U:=
         1         1        7.277795e-01
         2         1       -1.204941e-01
         3         1        1.783794e+00
         4         1        1.659533e+00
         5         1        1.012510e+00
         6         1       -7.878204e-01
         7         1        7.548289e-02
         8         1       -6.470535e-01
         9         1        9.896114e-01
        10         1        8.043247e-02
        11         1       -3.873157e-01
        12         1       -1.522470e+00
        13         1        2.055395e+00
        14         1        3.686392e-01
        15         1        1.038956e+00
        16         1        6.924807e-01
        17         1        3.740205e-01
        18         1        7.201376e-01
        19         1        6.200229e-01
        20         1       -5.790221e-01
        21         1       -1.717857e+00
        22         1        6.924411e-01
        23         1       -1.164184e+00
        24         1        8.888324e-01
        25         1        1.064368e+00
        26         1        2.478382e-01
        27         1        4.042778e-01
        28         1       -2.525963e+00
        29         1       -8.490653e-01
        30         1        3.221036e-01
        31         1       -1.075856e+00
        32         1        3.212642e-01
        33         1        1.558863e+00
        34         1       -3.431385e-01
        35         1       -4.725823e-01
        36         1       -7.896954e-01
        37         1       -3.245083e-01
        38         1       -6.822352e-02
        39         1        8.648605e-01
        40         1       -1.405237e+00
        41         1        4.782285e-01
        42         1       -2.512170e-02
        43         1       -2.164925e-01
        44         1       -9.504783e-01
        45         1        6.059836e-01
        46         1        6.248462e-01
        47         1       -1.412532e+00
        48         1        2.660228e-02
        49         1        1.532097e-01
        50         1        7.258151e-02
        51         1        7.679250e-01
        52         1        1.474968e+00
        53         1        1.641633e+00
        54         1       -5.607532e-01
        55         1       -2.829575e-01
        56         1        1.252803e-01
        57         1        4.635173e-01
        58         1       -5.041053e-01
        59         1        3.766849e-01
        60         1       -8.288504e-02
        61         1       -1.522713e+00
        62         1        8.712053e-01
        63         1        3.204132e-01
        64         1       -1.747700e-01
        65         1        3.677001e-01
        66         1        3.659093e-01
        67         1       -2.879030e-01
        68         1       -9.309338e-01
        69         1        2.897813e-01
        70         1        8.111051e-01
        71         1       -8.764961e-01
        72         1        1.083496e+00
        73         1       -8.388617e-01
        74         1        1.333948e+00
        75         1        1.701533e+00
        76         1       -1.897682e+00
        77         1       -3.275054e-01
        78         1       -1.259227e+00
        79         1       -7.680892e-02
        80         1       -2.526704e-01
        81         1       -7.762313e-01
        82         1        1.062264e+00
        83         1        2.424832e-01
        84         1        7.449232e-01
        85         1       -1.408002e+00
        86         1        4.885005e-01
        87         1       -4.537165e-01
        88         1       -8.744833e-01
        89         1        8.221992e-01
        90         1        3.679180e-01
        91         1        1.450773e+00
        92         1        5.013872e-01
        93         1       -2.392590e-02
        94         1       -5.694208e-01
        95         1       -3.990235e-01
        96         1       -2.126181e+00
        97         1       -1.346799e+00
        98         1       -2.356383e-01
        99         1        1.494680e-01
       100         1        9.973193e-01
         1         2       -6.611199e-01
         2         2       -4.020292e-01
         3         2       -1.080282e+00
         4         2        3.518552e-01
         5         2       -1.734460e+00
         6         2        7.116267e-02
         7         2        6.178151e-01
         8         2        2.786771e-01
         9         2        7.251921e-01
        10         2        5.334714e-01
        11         2        1.408486e-01
        12         2       -2.551183e+00
        13         2        5.027970e-01
        14         2        1.192253e+00
        15         2       -1.289257e+00
        16         2       -3.341795e-01
        17         2        1.765996e+00
        18         2        1.287588e+00
        19         2       -1.163676e+00
        20         2        2.640861e-01
        21         2       -5.332979e-01
        22         2       -1.220803e+00
        23         2       -7.871270e-02
        24         2        1.327813e+00
        25         2       -5.815974e-01
        26         2       -7.818905e-02
        27         2       -5.937889e-01
        28         2        6.036585e-01
        29         2        4.119802e-01
        30         2        4.240543e-01
        31         2        1.419309e+00
        32         2       -2.441996e-01
        33         2       -3.653778e-01
        34         2       -2.404396e+00
        35         2       -6.700737e-01
        36         2       -1.924954e+00
        37         2        5.720693e-01
        38         2        8.731912e-01
        39         2       -2.289005e+00
        40         2        1.413151e-01
        41         2       -5.240371e-01
        42         2       -1.063541e+00
        43         2        7.841132e-01
        44         2        1.277535e+00
        45         2       -2.289346e+00
        46         2        7.210806e-01
        47         2       -4.258259e-01
        48         2        5.063223e-02
        49         2       -7.073766e-01
        50         2       -4.909811e-01
        51         2       -2.012137e-01
        52         2       -5.417887e-01
        53         2        1.311133e+00
        54         2        1.555459e+00
        55         2        2.038243e+00
        56         2        4.277087e-01
        57         2        1.545399e-01
        58         2       -1.208313e+00
        59         2       -1.995974e+00
        60         2        3.574988e-02
        61         2        8.834112e-01
        62         2        4.742179e-01
        63         2        1.063577e+00
        64         2        1.578875e-01
        65         2       -1.128312e+00
        66         2       -1.783091e-01
        67         2       -1.048949e-01
        68         2        8.504410e-01
        69         2       -4.828119e-01
        70         2       -9.082617e-01
        71         2       -4.318740e-01
        72         2       -1.014758e-02
        73         2       -3.530838e-01
        74         2       -1.312829e+00
        75         2        7.239263e-01
        76         2       -6.398285e-01
        77         2       -4.569607e-01
        78         2       -4.689508e-01
        79         2        7.309559e-01
        80         2        5.301617e-01
        81         2       -5.371842e-01
        82         2        4.754111e-02
        83         2        6.499117e-01
        84         2       -1.012797e-01
        85         2       -2.443468e+00
        86         2       -9.388585e-01
        87         2       -1.129644e+00
        88         2       -2.212715e-01
        89         2        3.101954e-01
        90         2        5.542114e-01
        91         2        1.526417e+00
        92         2       -4.388921e-01
        93         2        5.525937e-01
        94         2       -5.768079e-01
        95         2       -1.510385e+00
        96         2        2.187589e+00
        97         2       -1.742545e+00
        98         2        1.183329e+00
        99         2       -9.280555e-01
       100         2        8.274793e-01
         1         3        8.974194e-01
         2         3        1.901368e+00
         3         3       -1.613782e+00
         4         3        1.206928e+00
         5         3        5.727798e-01
         6         3       -1.496224e-01
         7         3        1.835417e+00
         8         3       -1.198962e+00
         9         3       -1.416859e+00
        10         3        4.629596e-01
        11         3       -2.921998e-01
        12         3        2.239829e-02
        13         3        2.637364e+00
        14         3       -7.651146e-01
        15         3        2.018708e-01
        16         3        1.042616e+00
        17         3       -8.023480e-01
        18         3        1.054749e+00
        19         3       -2.577777e-01
        20         3        1.950686e-01
        21         3       -2.738691e-01
        22         3        1.621689e+00
        23         3       -1.365232e+00
        24         3       -1.863621e+00
        25         3        5.125881e-01
        26         3        1.207810e+00
        27         3       -6.700155e-02
        28         3        1.662871e-01
        29         3        1.736072e+00
        30         3        9.438085e-01
        31         3        4.297408e-01
        32         3       -1.701071e+00
        33         3        1.961265e+00
        34         3       -7.589721e-01
        35         3       -1.746750e-01
        36         3       -6.197803e-01
        37         3       -7.026739e-02
        38         3        8.812049e-01
        39         3       -1.944351e+00
        40         3        3.773147e-01
        41         3       -6.698068e-01
        42         3       -1.814081e+00
        43         3       -1.136079e+00
        44         3        1.569970e+00
        45         3        2.130952e+00
        46         3       -7.434182e-01
        47         3       -2.911873e-01
        48         3       -5.576919e-02
        49         3        4.079068e-02
        50         3       -1.300977e-01
        51         3        2.435808e-01
        52         3        2.502437e-01
        53         3       -6.809263e-03
        54         3        3.922189e-01
        55         3       -1.172229e+00
        56         3        2.711782e-01
        57         3       -1.084351e+00
        58         3        4.640863e-01
        59         3       -1.479749e+00
        60         3        9.021612e-01
        61         3       -1.435201e+00
        62         3       -1.381957e+00
        63         3        1.898681e+00
        64         3        1.369265e+00
        65         3       -2.493280e-01
        66         3        1.081105e+00
        67         3       -1.771035e-01
        68         3       -9.366211e-02
        69         3       -1.470897e+00
        70         3        1.293622e+00
        71         3       -4.378993e-01
        72         3        2.913138e-01
        73         3        1.506007e-02
        74         3        2.198468e-01
        75         3        7.106777e-01
        76         3        2.537084e+00
        77         3       -1.029950e+00
        78         3       -2.192107e-01
        79         3       -1.265071e+00
        80         3        1.579175e-01
        81         3        4.091007e-02
        82         3        2.084705e-01
        83         3        8.428446e-01
        84         3        2.527668e-01
        85         3       -7.031889e-01
        86         3        1.777966e+00
        87         3       -2.129652e-01
        88         3       -3.803924e-01
        89         3        9.873679e-01
        90         3       -9.068596e-01
        91         3       -1.336823e+00
        92         3       -2.576523e-01
        93         3       -4.701998e-01
        94         3       -1.040776e+00
        95         3        2.279570e-01
        96         3       -4.548344e-01
        97         3        2.161869e+00
        98         3        9.493666e-01
        99         3       -3.942190e-01
       100         3       -6.188316e-01
         1         4       -5.870850e-01
         2         4        8.822031e-01
         3         4       -1.689674e+00
         4         4        1.259996e-01
         5         4       -1.063257e-01
         6         4       -4.405724e-01
         7         4        2.395427e+00
         8         4       -1.749245e-01
         9         4        5.027162e-01
        10         4        8.307849e-01
        11         4       -1.159630e+00
        12         4       -1.055661e+00
        13         4       -5.802163e-01
        14         4       -2.757298e-02
        15         4        2.997696e-01
        16         4       -8.201741e-01
        17         4       -3.561105e-01
        18         4       -2.617478e-01
        19         4        3.668669e-01
        20         4       -1.145286e+00
        21         4       -1.231142e+00
        22         4       -1.188526e+00
        23         4       -1.703286e+00
        24         4       -1.097553e+00
        25         4        1.732521e+00
        26         4        1.265294e+00
        27         4       -6.830004e-01
        28         4       -1.214300e+00
        29         4       -2.919635e+00
        30         4        1.629401e+00
        31         4       -1.598251e-01
        32         4        1.549498e+00
        33         4        1.106009e+00
        34         4        7.419767e-01
        35         4        1.729951e+00
        36         4       -1.515415e-01
        37         4        8.248263e-01
        38         4        4.918781e-01
        39         4       -8.453955e-01
        40         4        2.925884e-01
        41         4        1.419609e+00
        42         4       -1.194717e-01
        43         4        6.683461e-01
        44         4        7.935950e-01
        45         4       -2.574153e+00
        46         4        1.662455e+00
        47         4       -5.288597e-01
        48         4       -1.445437e-01
        49         4       -2.387035e+00
        50         4       -1.815950e-01
        51         4       -2.520535e-01
        52         4       -2.901187e-01
        53         4       -1.404043e-01
        54         4        7.770757e-01
        55         4        9.847934e-01
        56         4        7.878752e-01
        57         4        5.366545e-01
        58         4        1.929879e+00
        59         4       -1.326910e+00
        60         4        2.030468e+00
        61         4        3.251526e-01
        62         4        1.918183e+00
        63         4       -3.593158e-02
        64         4       -2.250750e+00
        65         4        7.532764e-01
        66         4        5.994676e-01
        67         4        2.806070e-01
        68         4       -1.300228e+00
        69         4        1.003951e-01
        70         4       -2.542323e-01
        71         4       -1.286223e+00
        72         4        1.136101e+00
        73         4       -7.933147e-01
        74         4        2.179811e+00
        75         4        1.020033e+00
        76         4        1.041492e-01
        77         4        9.881334e-01
        78         4        6.825931e-01
        79         4       -1.134605e+00
        80         4        2.292229e-01
        81         4        1.629939e+00
        82         4       -1.980908e-01
        83         4        1.235868e+00
        84         4        3.206584e-01
        85         4        2.923090e-01
        86         4       -6.433159e-01
        87         4        1.940125e-01
        88         4       -5.055429e-01
        89         4       -3.957690e-01
        90         4        1.318626e-01
        91         4        1.538330e+00
        92         4       -5.546539e-01
        93         4       -1.000138e+00
        94         4       -5.835260e-01
        95         4       -8.841871e-01
        96         4       -2.426562e+00
        97         4        8.770156e-01
        98         4        1.311775e+00
        99         4       -3.096667e-01
       100         4        9.200799e-01
         1         5        7.974115e-01
         2         5       -1.379026e+00
         3         5       -5.645389e-01
         4         5        1.047204e+00
         5         5        1.227705e+00
         6         5        4.110268e-01
         7         5       -1.933437e-01
         8         5       -5.024330e-01
         9         5       -7.211498e-01
        10         5        9.545943e-01
        11         5       -2.227345e-01
        12         5        2.347996e-01
        13         5        1.742599e+00
        14         5        4.364868e-01
        15         5       -3.502664e-02
        16         5       -1.023613e+00
        17         5       -8.910225e-02
        18         5        3.153030e-02
        19         5        1.245429e-01
        20         5        9.294653e-01
        21         5       -3.306852e-01
        22         5        1.676317e-01
        23         5        1.158514e+00
        24         5       -2.004817e+00
        25         5       -6.349033e-01
        26         5        1.008573e+00
        27         5        2.585248e-01
        28         5       -1.646880e+00
        29         5       -2.424737e+00
        30         5        4.755120e-01
        31         5        3.820701e-01
        32         5        5.704492e-01
        33         5       -8.781047e-01
        34         5       -1.170960e+00
        35         5        1.894970e-02
        36         5       -3.512383e-01
        37         5       -5.420610e-02
        38         5       -1.735748e-01
        39         5        1.596691e+00
        40         5        4.740793e-01
        41         5        8.269453e-01
        42         5        1.784900e+00
        43         5       -2.224367e-01
        44         5        1.525611e-01
        45         5       -3.742343e-01
        46         5        1.391909e+00
        47         5        1.018423e+00
        48         5        9.161347e-01
        49         5       -7.200106e-01
        50         5        8.479826e-01
        51         5       -3.018845e-01
        52         5       -1.225232e-02
        53         5       -4.167835e-02
        54         5        9.400295e-01
        55         5       -6.423741e-01
        56         5       -1.640270e+00
        57         5       -7.178653e-01
        58         5        1.214808e+00
        59         5        1.494539e-01
        60         5       -1.337611e+00
        61         5        4.132015e-02
        62         5        3.348704e-01
        63         5       -1.371632e-01
        64         5        8.069938e-01
        65         5        2.013437e+00
        66         5       -1.560746e+00
        67         5        6.472391e-01
        68         5        1.522136e+00
        69         5       -3.125732e-01
        70         5        9.623412e-01
        71         5       -5.409173e-02
        72         5        1.471639e+00
        73         5        6.195082e-01
        74         5        8.280071e-01
        75         5       -1.877290e-01
        76         5       -6.997710e-01
        77         5       -1.439924e+00
        78         5        5.321795e-01
        79         5       -9.336245e-01
        80         5        1.625537e-01
        81         5       -3.144049e-01
        82         5       -6.357401e-01
        83         5        1.469932e-01
        84         5       -5.034209e-01
        85         5        1.686620e-01
        86         5        3.685866e-01
        87         5       -3.032578e-01
        88         5        2.158835e+00
        89         5       -8.878681e-01
        90         5        1.637351e+00
        91         5       -6.211279e-01
        92         5       -8.384253e-01
        93         5        6.985760e-01
        94         5        4.022746e-01
        95         5        1.385151e-01
        96         5       -3.109104e-01
        97         5        1.186332e+00
        98         5       -3.575645e-01
        99         5        8.525510e-01
       100         5        1.436860e+00
;

param theta:=
    1        7.709377e-01
    2        4.831543e-01
    3        1.840678e+00
    4        1.284944e-01
    5       -6.273035e-01
;
param X_true:=
    1        1.327449e+00
    2        4.415308e+00
    3       -1.850329e+00
    4        3.038948e+00
    5        3.014168e-01
    6       -1.096215e+00
    7        4.149396e+00
    8       -2.184488e+00
    9       -9.544919e-01
   10        6.089590e-01
   11       -8.299094e-01
   12       -2.854868e+00
   13        5.608799e+00
   14       -9.832299e-01
   15        6.755400e-01
   16        2.851010e+00
   17       -2.869176e-01
   18        2.998764e+00
   19       -5.574243e-01
   20       -5.648645e-01
   21       -2.208060e+00
   22        2.785021e+00
   23       -4.297444e+00
   24       -1.008681e+00
   25        2.127563e+00
   26        1.849723e+00
   27       -3.370452e-01
   28       -5.976812e-01
   29        3.919202e+00
   30        1.970880e+00
   31        4.383506e-01
   32       -3.071450e+00
   33        5.372697e+00
   34       -1.906791e+00
   35       -7.583454e-01
   36       -2.690408e+00
   37        9.495753e-02
   38        2.140735e+00
   39       -5.134339e+00
   40       -5.306759e-01
   41       -1.473624e+00
   42       -4.911867e+00
   43       -1.596090e+00
   44        2.668139e+00
   45        3.188374e+00
   46       -1.292696e+00
   47       -2.524973e+00
   48       -5.659157e-01
   49       -5.766909e-02
   50       -9.336478e-01
   51        1.208667e+00
   52        1.160568e+00
   53        1.795709e+00
   54        4.007927e-01
   55       -1.158720e+00
   56        1.871587e+00
   57       -9.992977e-01
   58       -6.394366e-01
   59       -3.862405e+00
   60        2.789194e+00
   61       -3.454015e+00
   62       -1.663680e+00
   63        4.361640e+00
   64        1.690230e+00
   65       -2.031414e+00
   66        3.124567e+00
   67       -1.001168e+00
   68       -1.391036e+00
   69       -2.463574e+00
   70        1.926979e+00
   71       -1.777024e+00
   72        6.622531e-01
   73       -1.439147e+00
   74        3.654413e-01
   75        3.343039e+00
   76        3.212778e+00
   77       -1.268993e+00
   78       -1.948847e+00
   79       -1.636002e+00
   80        1.208960e-01
   81       -1.928906e-01
   82        1.407192e+00
   83        2.212222e+00
   84        1.345243e+00
   85       -3.513619e+00
   86        3.017155e+00
   87       -1.071079e+00
   88       -3.101361e+00
   89        3.225062e+00
   90       -2.016829e+00
   91        6.513248e-02
   92        1.945318e-01
   93       -1.158290e+00
   94       -2.962906e+00
   95       -6.317943e-01
   96       -1.460444e+00
   97        1.399839e+00
   98        2.502535e+00
   99       -1.529935e+00
  100       -8.661538e-01
;
param X:=
    1        1.327449e+00
    2       -1.990766e-01
    3       -4.257525e-01
    4        3.038948e+00
    5       -6.694395e-01
    6        8.354852e-01
    7       -1.720229e-01
    8        9.545390e-01
    9       -9.544919e-01
   10       -1.022492e+00
   11        1.414822e+00
   12       -1.461720e-02
   13       -9.394407e-01
   14       -4.573476e-01
   15       -8.265059e-01
   16       -8.826603e-01
   17        1.432167e+00
   18        1.981896e-01
   19       -9.214546e-01
   20       -5.648645e-01
   21       -2.208060e+00
   22        4.361641e-01
   23        2.556576e+00
   24       -5.578756e-01
   25       -1.188893e-01
   26        3.157211e-02
   27       -7.689733e-01
   28        4.582604e-01
   29        3.919202e+00
   30        7.340624e-01
   31        5.857087e-01
   32       -5.844510e-01
   33        1.293756e+00
   34        1.843546e-01
   35       -5.166399e-01
   36       -3.997005e-01
   37       -6.167369e-01
   38       -1.889974e+00
   39       -1.267857e+00
   40       -1.305644e-01
   41        2.465384e-01
   42       -4.911867e+00
   43        5.868231e-02
   44       -4.324274e-01
   45        7.755194e-01
   46       -6.302952e-01
   47        7.825619e-01
   48       -5.659157e-01
   49       -3.773871e-01
   50       -9.336478e-01
   51        2.980038e-01
   52       -7.719821e-01
   53        1.795709e+00
   54       -1.200723e+00
   55       -1.529328e+00
   56        9.670994e-01
   57        2.105322e+00
   58       -6.394366e-01
   59       -3.862405e+00
   60        2.789194e+00
   61       -1.606008e+00
   62        3.317170e-01
   63        4.361640e+00
   64       -1.210392e+00
   65       -1.419954e+00
   66        7.353976e-02
   67       -1.001168e+00
   68        1.690323e-01
   69        1.163698e+00
   70        2.758717e-01
   71       -2.556187e-01
   72        9.865641e-01
   73        5.109474e-01
   74        2.049820e-01
   75        7.997292e-01
   76       -1.728523e-03
   77        9.659849e-01
   78       -1.948847e+00
   79       -1.176619e+00
   80        1.636416e+00
   81       -6.791502e-02
   82       -8.791071e-01
   83        4.255863e-01
   84        7.528660e-01
   85       -2.527413e-01
   86        1.197552e+00
   87       -1.071079e+00
   88       -8.414457e-01
   89        1.116270e-01
   90       -2.016829e+00
   91       -2.648656e-01
   92        1.234876e+00
   93        8.969172e-01
   94       -5.617788e-01
   95       -3.853536e-01
   96        2.991740e-01
   97        3.702199e-01
   98        2.502535e+00
   99       -1.529935e+00
  100       -5.351847e-01
;
param outliervec:=
    1    0
    2    1
    3    1
    4    0
    5    1
    6    1
    7    1
    8    1
    9    0
   10    1
   11    1
   12    1
   13    1
   14    1
   15    1
   16    1
   17    1
   18    1
   19    1
   20    0
   21    0
   22    1
   23    1
   24    1
   25    1
   26    1
   27    1
   28    1
   29    0
   30    1
   31    1
   32    1
   33    1
   34    1
   35    1
   36    1
   37    1
   38    1
   39    1
   40    1
   41    1
   42    0
   43    1
   44    1
   45    1
   46    1
   47    1
   48    0
   49    1
   50    0
   51    1
   52    1
   53    0
   54    1
   55    1
   56    1
   57    1
   58    0
   59    0
   60    0
   61    1
   62    1
   63    0
   64    1
   65    1
   66    1
   67    0
   68    1
   69    1
   70    1
   71    1
   72    1
   73    1
   74    1
   75    1
   76    1
   77    1
   78    0
   79    1
   80    1
   81    1
   82    1
   83    1
   84    1
   85    1
   86    1
   87    0
   88    1
   89    1
   90    0
   91    1
   92    1
   93    1
   94    1
   95    1
   96    1
   97    1
   98    0
   99    0
  100    1
;